21
99
3
25
51
118
65
29
70
36
25
152
1
22
3
101
65
116
102
155
81
63
35
137
78
56
63
173
3
43
93
24
145
24
89
1
122
33
81
90
160
26
161
151
134
163
44
112
142
156
100
120
140
170
129
40
28
125
62
96
16
53
60
7
45
83
158
57
7
63
112
47
126
89
149
134
153
179
95
163
51
173
165
110
30
43
140
58
83
110
145
83
168
157
96
68
64
88
125
21
